SDVRP instances/custom_instances/p04_12_split0.vrp
NAME:p04_12_split
BEST_KNOWN: 0
COMMENT: 0
DIMENSION: 697
CAPACITY: 200
EDGE_WEIGHT_FORMAT: FUNCTION
EDGE_WEIGHT_TYPE: EXACT_2D
NODE_COORD_SECTION
1 0.00000 0.00000
2 40 13
3 40 13
4 40 13
5 40 13
6 40 13
7 22 42
8 22 42
9 22 42
10 22 42
11 22 42
12 31 -30
13 31 -30
14 31 -30
15 31 -30
16 31 -30
17 -26 -13
18 -26 -13
19 -26 -13
20 -26 -13
21 -26 -13
22 -26 -13
23 28 30
24 28 30
25 28 30
26 -6 24
27 -6 24
28 -6 24
29 -6 24
30 -45 15
31 -45 15
32 -45 15
33 -45 15
34 -45 15
35 2 37
36 2 37
37 2 37
38 -41 19
39 -41 19
40 -41 19
41 -41 19
42 24 -2
43 24 -2
44 24 -2
45 2 -17
46 2 -17
47 2 -17
48 2 -17
49 2 -17
50 2 -17
51 2 -17
52 -21 3
53 -21 3
54 -21 3
55 -21 3
56 -21 3
57 -21 3
58 -21 3
59 -21 3
60 17 -30
61 17 -30
62 17 -30
63 17 -30
64 17 -30
65 17 -30
66 17 -30
67 -47 -30
68 -47 -30
69 -47 -30
70 -47 -30
71 -47 -30
72 -47 -30
73 -31 -21
74 -31 -21
75 -31 -21
76 -31 -21
77 -31 -21
78 -31 -21
79 -31 -21
80 12 43
81 12 43
82 12 43
83 12 43
84 12 43
85 12 43
86 -14 38
87 -14 38
88 -14 38
89 -14 38
90 -14 38
91 -43 -24
92 -43 -24
93 -43 -24
94 -35 -24
95 -35 -24
96 5 -8
97 5 -8
98 5 -8
99 5 -8
100 3 -15
101 3 -15
102 3 -15
103 3 -15
104 7 -16
105 7 -16
106 7 -16
107 7 -16
108 10 -15
109 10 -15
110 10 -15
111 10 -15
112 10 -15
113 10 -15
114 -23 12
115 -23 12
116 -23 12
117 -23 12
118 -9 -5
119 -9 -5
120 -9 -5
121 -9 -5
122 -5 -4
123 -5 -4
124 -5 -4
125 -5 -4
126 26 41
127 26 41
128 26 41
129 26 41
130 -21 4
131 -21 4
132 -21 4
133 -21 4
134 -21 4
135 -17 31
136 -17 31
137 -17 31
138 -17 31
139 33 -23
140 33 -23
141 33 -23
142 48 -23
143 48 -23
144 48 -23
145 -22 -11
146 -22 -11
147 -22 -11
148 -22 -11
149 -22 -11
150 -18 18
151 -18 18
152 -18 18
153 -18 18
154 -13 5
155 -13 5
156 -13 5
157 -13 5
158 -13 5
159 -2 -12
160 -2 -12
161 -2 -12
162 -2 -12
163 -2 -12
164 -2 -12
165 -2 -12
166 13 26
167 13 26
168 13 26
169 13 26
170 13 26
171 13 26
172 24 39
173 24 39
174 -46 26
175 -46 26
176 -46 26
177 -47 49
178 -47 49
179 -47 49
180 -47 49
181 25 8
182 25 8
183 25 8
184 25 8
185 14 -28
186 14 -28
187 14 -28
188 20 24
189 20 24
190 20 24
191 20 24
192 20 24
193 20 24
194 -47 34
195 -47 34
196 -47 34
197 -47 34
198 -47 34
199 -47 34
200 -22 13
201 -22 13
202 -22 13
203 -22 13
204 -22 13
205 10 -4
206 10 -4
207 10 -4
208 10 -4
209 10 -4
210 49 -16
211 49 -16
212 49 -16
213 49 -16
214 49 -16
215 49 -16
216 49 -16
217 12 -8
218 12 -8
219 12 -8
220 12 -8
221 12 -8
222 12 -8
223 -17 -34
224 30 -35
225 30 -35
226 30 -35
227 -7 -34
228 -7 -34
229 -7 -34
230 -7 -34
231 -7 -34
232 -7 -34
233 -7 -34
234 12 40
235 12 40
236 12 40
237 12 40
238 12 40
239 12 40
240 -36 -28
241 -36 -28
242 -36 -28
243 -36 -28
244 -46 50
245 -46 50
246 -46 50
247 -1 12
248 -1 12
249 -1 12
250 3 49
251 3 49
252 -31 -10
253 -31 -10
254 -31 -10
255 -31 -10
256 31 -44
257 31 -44
258 31 -44
259 31 -44
260 -21 42
261 -21 42
262 -21 42
263 -21 42
264 -21 42
265 28 9
266 28 9
267 28 9
268 28 9
269 33 3
270 33 3
271 -48 -14
272 -48 -14
273 -48 -14
274 -48 -14
275 -48 -14
276 -48 -5
277 -48 -5
278 -48 -5
279 -48 -5
280 17 28
281 17 28
282 17 28
283 17 28
284 -42 -20
285 -42 -20
286 3 -36
287 3 -36
288 3 -36
289 3 -36
290 3 -36
291 7 -38
292 7 -38
293 7 -38
294 7 -38
295 7 -38
296 -25 -1
297 -25 -1
298 -25 -1
299 -25 -1
300 -25 -1
301 -25 -1
302 -35 9
303 -35 9
304 -35 9
305 -35 9
306 -35 9
307 -35 9
308 -35 9
309 43 2
310 43 2
311 43 2
312 36 38
313 36 38
314 36 38
315 36 38
316 48 -39
317 48 -39
318 48 -39
319 48 -39
320 48 -39
321 48 -39
322 48 -39
323 -17 -9
324 -17 -9
325 -17 -9
326 0 29
327 0 29
328 0 29
329 4 -7
330 4 -7
331 4 -7
332 4 -7
333 46 1
334 46 1
335 46 1
336 46 1
337 46 1
338 49 -31
339 49 -31
340 49 -31
341 27 22
342 27 22
343 27 22
344 27 22
345 22 27
346 22 27
347 22 27
348 22 27
349 22 27
350 22 27
351 -12 49
352 -12 49
353 -12 49
354 -12 49
355 -12 49
356 -12 49
357 -12 49
358 48 -14
359 48 -14
360 48 -14
361 48 -14
362 48 -14
363 48 -14
364 -21 -29
365 -21 -29
366 -21 -29
367 -21 -29
368 -21 -29
369 -21 -29
370 -21 -29
371 -21 -29
372 7 -5
373 7 -5
374 7 -5
375 7 -5
376 7 -5
377 7 -5
378 -24 -5
379 -24 -5
380 -24 -5
381 -24 -5
382 -28 37
383 -28 37
384 14 -4
385 14 -4
386 14 -4
387 43 33
388 43 33
389 43 33
390 -19 -12
391 -19 -12
392 -19 -12
393 -19 -12
394 -19 -12
395 40 17
396 40 17
397 40 17
398 40 17
399 40 17
400 50 -46
401 50 -46
402 50 -46
403 50 -46
404 50 -46
405 50 -46
406 49 -31
407 49 -31
408 49 -31
409 49 -31
410 49 -31
411 49 -31
412 -39 -31
413 -39 -31
414 -39 -31
415 -39 -31
416 28 -2
417 28 -2
418 28 -2
419 43 -36
420 43 -36
421 43 -36
422 43 -36
423 43 -36
424 43 -36
425 -16 8
426 -16 8
427 -16 8
428 -3 42
429 -3 42
430 -3 42
431 -3 42
432 28 13
433 28 13
434 28 13
435 28 13
436 -14 -11
437 -14 -11
438 -14 -11
439 20 -11
440 20 -11
441 20 -11
442 20 -11
443 5 26
444 5 26
445 5 26
446 5 26
447 5 26
448 5 26
449 17 37
450 17 37
451 -10 18
452 -10 18
453 -10 18
454 -10 18
455 -10 18
456 -10 18
457 -10 18
458 40 -16
459 40 -16
460 40 -16
461 40 -16
462 40 -16
463 40 -16
464 16 34
465 16 34
466 16 34
467 16 34
468 16 34
469 16 34
470 -31 -23
471 -31 -23
472 -31 -23
473 -31 -23
474 -31 -23
475 -31 -23
476 8 34
477 8 34
478 8 34
479 8 34
480 8 34
481 -31 -38
482 -31 -38
483 -31 -38
484 -31 -38
485 -31 -38
486 -31 -38
487 24 40
488 24 40
489 24 40
490 -46 16
491 -46 16
492 -46 16
493 -46 16
494 -46 16
495 -46 16
496 45 -10
497 45 -10
498 45 -10
499 45 -10
500 45 -10
501 -18 4
502 -18 4
503 -18 4
504 -18 4
505 -18 4
506 -18 4
507 -28 -13
508 -28 -13
509 -28 -13
510 -28 -13
511 46 -10
512 46 -10
513 46 -10
514 46 -10
515 46 -10
516 46 -10
517 44 46
518 44 46
519 44 46
520 44 46
521 44 46
522 44 46
523 11 -9
524 11 -9
525 11 -9
526 11 -9
527 -11 9
528 -11 9
529 -11 9
530 -11 9
531 -11 9
532 -28 47
533 -28 47
534 -9 -15
535 -9 -15
536 -9 -15
537 -9 -15
538 -33 -26
539 -33 -26
540 39 -17
541 39 -17
542 30 10
543 30 10
544 30 10
545 30 10
546 30 10
547 30 10
548 30 10
549 30 10
550 -38 -15
551 -38 -15
552 -38 -15
553 -38 -15
554 21 -35
555 21 -35
556 21 -35
557 21 -35
558 21 -35
559 50 -2
560 50 -2
561 50 -2
562 50 -2
563 -39 4
564 -39 4
565 0 14
566 0 14
567 0 14
568 0 14
569 0 14
570 0 14
571 -13 48
572 -13 48
573 -13 48
574 -13 48
575 -13 48
576 -13 48
577 -13 48
578 -41 -33
579 -41 -33
580 -41 -33
581 -41 -33
582 -41 -33
583 -41 -33
584 11 3
585 11 3
586 11 3
587 11 3
588 11 3
589 32 -44
590 32 -44
591 32 -44
592 32 -44
593 32 -44
594 14 -41
595 14 -41
596 14 -41
597 34 38
598 34 38
599 34 38
600 34 38
601 34 38
602 34 38
603 34 38
604 23 13
605 23 13
606 23 13
607 23 13
608 4 40
609 4 40
610 4 40
611 4 40
612 21 -40
613 21 -40
614 21 -40
615 21 -40
616 16 6
617 16 6
618 16 6
619 16 6
620 16 6
621 -12 -43
622 -12 -43
623 -12 -43
624 -12 -43
625 -12 -43
626 -12 -43
627 -35 24
628 -35 24
629 -35 24
630 -40 -28
631 -40 -28
632 -40 -28
633 35 -38
634 35 -38
635 35 -38
636 35 -38
637 35 -38
638 35 -38
639 35 -38
640 -8 -29
641 -8 -29
642 -8 -29
643 -18 -43
644 -18 -43
645 -18 -43
646 -18 -43
647 -18 -43
648 46 -50
649 46 -50
650 46 -50
651 46 -50
652 46 -50
653 46 -50
654 46 -50
655 38 33
656 38 33
657 38 33
658 38 33
659 38 33
660 -23 -12
661 -23 -12
662 -23 -12
663 26 6
664 26 6
665 26 6
666 26 6
667 26 6
668 26 6
669 -45 23
670 -45 23
671 -45 23
672 -45 23
673 -45 23
674 -45 23
675 -8 -20
676 -8 -20
677 -8 -20
678 -8 -20
679 -42 7
680 -42 7
681 -42 7
682 -42 7
683 -42 7
684 -42 7
685 -42 7
686 21 35
687 21 35
688 21 35
689 21 35
690 21 35
691 21 35
692 -7 22
693 -7 22
694 -7 22
695 -7 22
696 -7 22
697 -7 22
DEMAND_SECTION
1 0
2 20
3 10
4 2
5 2
6 2
7 20
8 2
9 2
10 2
11 1
12 40
13 20
14 2
15 2
16 2
17 20
18 10
19 2
20 2
21 2
22 1
23 40
24 2
25 2
26 40
27 10
28 2
29 2
30 40
31 40
32 10
33 2
34 2
35 40
36 2
37 1
38 40
39 2
40 2
41 2
42 20
43 10
44 2
45 20
46 10
47 2
48 2
49 2
50 2
51 1
52 40
53 40
54 10
55 2
56 2
57 2
58 2
59 1
60 40
61 20
62 2
63 2
64 2
65 2
66 1
67 40
68 40
69 10
70 2
71 2
72 1
73 40
74 20
75 10
76 2
77 2
78 2
79 1
80 40
81 40
82 10
83 2
84 2
85 2
86 20
87 10
88 2
89 2
90 2
91 40
92 20
93 2
94 40
95 20
96 40
97 20
98 2
99 2
100 20
101 10
102 2
103 2
104 40
105 20
106 2
107 1
108 40
109 40
110 10
111 2
112 2
113 2
114 40
115 2
116 2
117 2
118 20
119 2
120 2
121 1
122 40
123 2
124 2
125 2
126 20
127 2
128 2
129 2
130 40
131 40
132 10
133 2
134 2
135 20
136 10
137 2
138 1
139 40
140 40
141 10
142 40
143 10
144 2
145 40
146 10
147 2
148 2
149 2
150 20
151 2
152 2
153 2
154 40
155 10
156 2
157 2
158 2
159 40
160 40
161 10
162 2
163 2
164 2
165 2
166 20
167 10
168 2
169 2
170 2
171 2
172 40
173 2
174 40
175 2
176 2
177 40
178 20
179 2
180 2
181 40
182 20
183 2
184 1
185 20
186 10
187 2
188 40
189 40
190 2
191 2
192 2
193 2
194 40
195 40
196 10
197 2
198 2
199 2
200 40
201 10
202 2
203 2
204 1
205 40
206 20
207 10
208 2
209 2
210 40
211 40
212 10
213 2
214 2
215 2
216 1
217 20
218 10
219 2
220 2
221 2
222 1
223 40
224 40
225 40
226 2
227 40
228 40
229 10
230 2
231 2
232 2
233 1
234 40
235 40
236 10
237 2
238 2
239 1
240 40
241 40
242 2
243 2
244 40
245 40
246 1
247 20
248 10
249 2
250 40
251 2
252 20
253 2
254 2
255 2
256 40
257 20
258 2
259 2
260 40
261 20
262 2
263 2
264 2
265 40
266 20
267 2
268 2
269 20
270 10
271 20
272 10
273 2
274 2
275 1
276 40
277 20
278 10
279 2
280 40
281 20
282 2
283 2
284 40
285 40
286 40
287 2
288 2
289 2
290 1
291 40
292 2
293 2
294 2
295 2
296 20
297 10
298 2
299 2
300 2
301 1
302 40
303 40
304 10
305 2
306 2
307 2
308 2
309 40
310 2
311 1
312 40
313 20
314 10
315 1
316 40
317 40
318 10
319 2
320 2
321 2
322 1
323 40
324 10
325 2
326 20
327 10
328 2
329 20
330 10
331 2
332 2
333 40
334 2
335 2
336 2
337 2
338 40
339 40
340 1
341 40
342 20
343 10
344 1
345 40
346 40
347 2
348 2
349 2
350 2
351 40
352 20
353 10
354 2
355 2
356 2
357 2
358 40
359 40
360 2
361 2
362 2
363 2
364 40
365 20
366 10
367 2
368 2
369 2
370 2
371 1
372 20
373 10
374 2
375 2
376 2
377 2
378 40
379 20
380 2
381 1
382 40
383 10
384 40
385 40
386 1
387 40
388 20
389 10
390 40
391 2
392 2
393 2
394 1
395 20
396 2
397 2
398 2
399 1
400 40
401 10
402 2
403 2
404 2
405 2
406 40
407 40
408 2
409 2
410 2
411 1
412 40
413 2
414 2
415 1
416 40
417 20
418 2
419 40
420 40
421 2
422 2
423 2
424 2
425 40
426 10
427 1
428 40
429 40
430 10
431 1
432 40
433 20
434 10
435 1
436 40
437 40
438 10
439 40
440 10
441 2
442 1
443 20
444 10
445 2
446 2
447 2
448 2
449 40
450 1
451 40
452 20
453 10
454 2
455 2
456 2
457 2
458 20
459 2
460 2
461 2
462 2
463 1
464 40
465 10
466 2
467 2
468 2
469 2
470 40
471 20
472 10
473 2
474 2
475 1
476 40
477 10
478 2
479 2
480 1
481 40
482 40
483 2
484 2
485 2
486 2
487 20
488 10
489 1
490 40
491 40
492 10
493 2
494 2
495 2
496 40
497 20
498 10
499 2
500 1
501 40
502 40
503 10
504 2
505 2
506 1
507 40
508 10
509 2
510 2
511 40
512 20
513 2
514 2
515 2
516 1
517 40
518 10
519 2
520 2
521 2
522 1
523 40
524 2
525 2
526 1
527 40
528 2
529 2
530 2
531 2
532 20
533 10
534 40
535 20
536 2
537 1
538 40
539 10
540 40
541 20
542 40
543 20
544 10
545 2
546 2
547 2
548 2
549 1
550 20
551 2
552 2
553 2
554 40
555 40
556 10
557 2
558 2
559 40
560 40
561 10
562 1
563 40
564 1
565 40
566 40
567 2
568 2
569 2
570 1
571 40
572 20
573 10
574 2
575 2
576 2
577 1
578 40
579 20
580 10
581 2
582 2
583 2
584 40
585 20
586 10
587 2
588 1
589 40
590 2
591 2
592 2
593 2
594 40
595 10
596 2
597 20
598 10
599 2
600 2
601 2
602 2
603 1
604 20
605 10
606 2
607 1
608 40
609 40
610 10
611 1
612 20
613 2
614 2
615 1
616 40
617 40
618 2
619 2
620 2
621 20
622 10
623 2
624 2
625 2
626 2
627 40
628 2
629 2
630 40
631 20
632 2
633 40
634 10
635 2
636 2
637 2
638 2
639 1
640 40
641 20
642 1
643 40
644 20
645 10
646 2
647 2
648 40
649 10
650 2
651 2
652 2
653 2
654 1
655 20
656 10
657 2
658 2
659 1
660 40
661 10
662 1
663 40
664 20
665 2
666 2
667 2
668 1
669 40
670 40
671 10
672 2
673 2
674 2
675 20
676 2
677 2
678 2
679 20
680 10
681 2
682 2
683 2
684 2
685 1
686 40
687 20
688 2
689 2
690 2
691 1
692 40
693 40
694 2
695 2
696 2
697 1
DEPOT_SECTION
1
-1
EOF