SDVRP instances/custom_instances/p04_12_split0.sol
696 -14 12 401 402 403 400 404 399 648 647 649 650 653 652 651 635 638 637 636 633 632 634 -18 19 17 21 506 508 76 77 72 73 365 370 369 366 367 363 368 364 -20 16 507 509 284 90 92 91 93 94 -23 24 22 314 311 598 601 602 597 596 600 127 128 126 125 486 488 487 686 -32 30 31 33 29 492 490 494 489 491 493 -38 40 671 673 669 668 672 670 174 175 173 197 194 196 198 195 -41 497 496 499 498 495 515 511 357 360 361 359 358 -42 43 416 415 417 268 4 3 2 1 5 397 396 398 394 395 662 665 -46 45 47 289 286 285 288 287 292 291 294 290 293 594 595 593 611 614 612 613 63 65 329 -49 44 48 50 227 226 641 639 640 674 677 161 164 -52 56 55 53 57 51 58 54 132 133 131 129 130 505 503 504 -61 62 59 64 60 554 556 557 553 555 186 185 184 -89 87 88 85 86 261 263 259 262 260 531 532 381 149 152 150 151 -101 102 99 100 104 103 105 106 111 112 110 108 107 109 -120 118 117 119 536 675 676 222 643 645 642 646 644 625 624 621 623 622 620 230 231 228 232 229 -121 123 122 533 535 534 160 162 163 158 159 -124 537 538 240 239 241 469 472 470 474 473 -134 137 136 135 627 628 626 39 37 680 679 683 682 678 681 684 562 563 -141 142 143 210 213 215 209 214 212 211 362 514 512 513 510 -144 146 148 661 660 659 379 378 377 380 298 299 297 295 300 296 -155 153 154 156 157 426 425 424 501 500 502 -169 167 165 168 170 166 467 465 468 463 7 8 9 6 10 171 172 688 690 687 689 685 -187 340 343 342 341 432 434 433 604 605 583 586 587 -190 192 189 191 188 344 347 348 349 345 346 280 279 282 281 -193 177 178 179 176 245 244 243 382 -201 199 200 202 203 113 114 116 115 304 306 307 303 302 301 305 -206 205 207 204 208 373 374 372 371 376 375 95 98 97 96 330 328 331 -224 225 223 591 592 590 588 589 256 257 255 258 -246 248 247 564 455 450 452 456 453 454 451 530 526 528 527 529 -253 252 251 254 552 550 549 551 283 270 271 273 272 274 277 276 275 278 -267 264 266 265 541 542 543 548 547 546 431 603 606 -269 560 561 559 558 333 332 336 335 334 310 309 308 545 544 617 618 -323 322 324 145 147 389 435 437 436 -326 325 34 35 36 610 608 609 607 445 446 442 444 443 -385 383 384 438 218 221 219 220 216 217 524 522 -392 390 74 71 67 69 66 68 70 581 580 577 579 582 578 412 242 471 -393 391 75 78 631 630 629 413 414 411 482 480 484 485 483 481 -409 408 405 338 406 339 410 337 407 461 462 460 457 458 459 -422 418 419 421 420 423 321 316 319 320 317 315 318 440 439 441 -427 350 356 354 351 355 352 353 575 576 572 570 574 571 573 -447 238 236 82 83 80 79 84 81 250 249 428 430 429 327 569 -466 464 448 449 234 233 235 237 476 479 475 478 477 -525 523 11 13 15 138 139 140 539 540 -568 566 567 565 25 28 26 27 696 694 693 695 691 692 -585 584 664 666 663 667 181 183 180 182 615 616 619 -599 313 312 518 516 519 520 521 517 388 386 387 655 657 658 656 654 0 





OBJ=
4109.022
BEST_KNOWN=
0.000